 $contrl scftyp=mcscf runtyp=energy icharg=0 d5=.t. maxit=100 mult=1
 inttyp=hondo icut=11 units=bohr mplevl=2 $end
 $system mwords=250 timlim=90000 $end
 $p2p p2p=.t. dlb=.t. $end
 $smp smppar=.t. np=4 mklnp=4 $end
 $scf soscf=.f. diis=.t. dirscf=.t. $END
 $BASIS GBASIS=cc-pvdz extfil=1 $END
 $moorth nostf=1 nozero=1 tole=0 tolz=0 $end
 $trans dirtrf=.t. mptran=2 mode=112 altpar=1 aoints=dist $end
 $MCSCF CISTEP=aldet MAXIT=100 acurcy=1d-5 $END
 $det
  group=c1 ncore=42 nact=12 nels=14 nstate=3
  wstate(1)=1,1,1 maxv=4 nstgss=30 ispin=0
  itermx=5000
 $end
 $GUESS GUESS=moread norb=54 norder=0
 $END
 $Xmcqdpt kstate(1)=1,1,1 avecoe(1)=1,1,1 nstate=3
 thrwgt=1d-6 thrgen=1d-12 edshft=0.02 inorb=0 $end
 $mcqfit $end
 $DATA
 
 C1
 C    6.0   102.6345281  127.0478470  39.9310845
 N    7.0   102.8767415  129.2067093  41.0942540
 C    6.0   102.0524860  130.9738129  39.3229828
 C    6.0   100.9984071  129.5567113  37.1543776
 O    8.0   100.1856676  130.3816876  35.1412309
 C    6.0   101.8734752  133.4989598  39.6390002
 H    1.0   100.8793279  134.5011629  38.1650261
 C    6.0   103.1281280  135.1453172  41.3850092
 C    6.0   105.0251330  134.3559520  43.0516322
 H    1.0   105.6317299  132.4079903  42.9988372
 C    6.0   102.4610499  137.7026872  41.2661282
 H    1.0   101.1556386  138.4032588  39.8624123
 C    6.0   106.1420811  136.0487516  44.7504916
 H    1.0   107.6722607  135.4992209  45.9841401
 C    6.0   103.5491270  139.4691871  42.9077459
 H    1.0   102.8672530  141.3797986  43.1310949
 C    6.0   105.3221418  138.5811343  44.6846354
 O    8.0   106.3443041  140.3744958  46.2283359
 H    1.0   107.5350785  139.7791446  47.4606912
 N    7.0   101.5937763  127.0304830  37.5585644
 H    1.0   103.1561430  125.3308081  40.7620801
 H    1.0   101.1824551  125.5218214  36.3916328
 $END
 $FRG001
  fragment #           1
 COORDINATES
 X-ax       1 0 0 1 0
 Y-ax 0       1 0 1 0
 Z-ax 0 0       1 1 0
 CHG001    106.797643200000    110.068479500000     35.141800800000 1 0
 CHG002    108.642745400000    109.430083100000     34.485429900000 1 0
 CHG003    105.618754100000    109.938596100000     33.457717000000 1 0
 CHG004    106.986890500000    111.900660000000     36.063802200000 1 0
 CHG005    104.012972900000    109.087983700000     38.778746100000 1 0
 CHG006    103.496737600000    107.890640300000     40.373317700000 1 0
 CHG007    104.295726400000    111.003380000000     39.481669600000 1 0
 CHG008    102.299916700000    109.298028200000     37.654420300000 1 0
 CHG009    116.028118900000    115.771803400000     30.357842600000 1 0
 CHG010     98.005296300000    118.963704000000     57.791264600000 1 0
 CHG011     99.197053000000    117.546890700000     55.773815100000 1 0
 CHG012     97.915953100000    115.991138100000     55.348117000000 1 0
 CHG013     99.614826100000    119.268525300000     53.498455300000 1 0
 CHG014    100.484001000000    120.991024900000     54.219779100000 1 0
 CHG015     97.821554700000    119.871022100000     52.683620700000 1 0
 CHG016    100.966472400000    117.922501700000     51.335790500000 1 0
 CHG017    102.885374000000    117.346551000000     51.814211500000 1 0
 CHG018     99.666170300000    115.466018000000     50.567190900000 1 0
 CHG019    100.153570700000    114.901024600000     48.647293700000 1 0
 CHG020    100.453868500000    113.920618900000     51.678065600000 1 0
 CHG021     97.618214400000    115.604065200000     50.739245300000 1 0
 CHG022    101.072035300000    119.689560300000     49.059349300000 1 0
 CHG023    102.254357500000    121.291241600000     49.588028800000 1 0
 CHG024    101.899805000000    118.580154400000     47.533963500000 1 0
 CHG025     99.108412600000    120.196054900000     48.698209900000 1 0
 CHG026    101.670783600000    116.342753000000     56.612294400000 1 0
 CHG027    103.171713800000    117.871905400000     57.508281300000 1 0
 STOP
 MONOPOLES
 CHG001     -0.090100000000
 CHG002     -0.009000000000
 CHG003     -0.009000000000
 CHG004     -0.009000000000
 CHG005     -0.090100000000
 CHG006     -0.009000000000
 CHG007     -0.009000000000
 CHG008     -0.009000000000
 CHG009      0.022400000000
 CHG010     -0.355200000000
 CHG011     -0.101500000000
 CHG012      0.137000000000
 CHG013     -0.144400000000
 CHG014      0.052500000000
 CHG015      0.052500000000
 CHG016      0.192000000000
 CHG017      0.000800000000
 CHG018     -0.123000000000
 CHG019      0.022400000000
 CHG020      0.022400000000
 CHG021      0.022400000000
 CHG022     -0.123000000000
 CHG023      0.022400000000
 CHG024      0.022400000000
 CHG025      0.022400000000
 CHG026      0.573500000000
 CHG027     -0.557800000000
 STOP
 $END
 $FRG002
  fragment #           2
 COORDINATES
 X-ax       1 0 0 1 0
 Y-ax 0       1 0 1 0
 Z-ax 0 0       1 1 0
 CHG001    108.406028600000    112.563439800000     53.471692900000 1 0
 CHG002    107.663457100000    111.289792000000     48.552719600000 1 0
 CHG003    108.831415900000    110.554501200000     47.023666300000 1 0
 CHG004    108.179332000000    113.257271300000     48.877810900000 1 0
 CHG005    104.938312900000    111.067492700000     47.636192300000 1 0
 CHG006    103.804865800000    111.478597700000     49.306248400000 1 0
 CHG007    104.256285700000    112.916613700000     45.531093800000 1 0
 CHG008    104.452750700000    114.888157000000     46.094303000000 1 0
 CHG009    105.457278500000    112.325686800000     43.965465200000 1 0
 CHG010    102.270144700000    112.667362700000     45.045409900000 1 0
 CHG011    104.278758900000    108.305268500000     47.135244000000 1 0
 CHG012    102.770800200000    108.058306400000     45.753992300000 1 0
 CHG013    114.138899300000    110.470023900000     41.188774000000 1 0
 CHG014    111.706078200000    111.507117200000     41.117119200000 1 0
 CHG015    110.454606200000    110.974211700000     39.595572000000 1 0
 CHG016    110.933239000000    113.162188100000     43.030961100000 1 0
 CHG017    109.079946000000    114.016945600000     43.027172000000 1 0
 CHG018    112.653855400000    113.763216200000     44.948646200000 1 0
 CHG019    111.934568000000    114.945655600000     46.448571700000 1 0
 CHG020    115.027375600000    112.603268100000     45.090797900000 1 0
 CHG021    124.990420700000    131.942360200000     46.534351100000 1 0
 CHG022    124.758236400000    128.538766100000     43.947150500000 1 0
 CHG023    123.152049700000    127.762719000000     44.977057600000 1 0
 CHG024    123.564479300000    129.559270400000     41.537613600000 1 0
 CHG025    121.371231500000    130.323134700000     41.530508500000 1 0
 CHG026    123.520379900000    132.122677600000     36.978119500000 1 0
 CHG027    121.650614900000    128.767283000000     36.055944700000 1 0
 STOP
 MONOPOLES
 CHG001      0.262400000000
 CHG002     -0.144400000000
 CHG003      0.052500000000
 CHG004      0.052500000000
 CHG005      0.192000000000
 CHG006      0.000800000000
 CHG007     -0.123000000000
 CHG008      0.022400000000
 CHG009      0.022400000000
 CHG010      0.022400000000
 CHG011     -0.123000000000
 CHG012      0.022400000000
 CHG013     -0.083100000000
 CHG014     -0.157000000000
 CHG015      0.123700000000
 CHG016     -0.099800000000
 CHG017      0.114700000000
 CHG018     -0.157000000000
 CHG019      0.123700000000
 CHG020     -0.083100000000
 CHG021      0.019400000000
 CHG022     -0.034600000000
 CHG023      0.060000000000
 CHG024      0.333700000000
 CHG025     -0.434600000000
 CHG026      0.163800000000
 CHG027      0.559900000000
 STOP
 $END
 $FRG003
  fragment #           3
 COORDINATES
 X-ax       1 0 0 1 0
 Y-ax 0       1 0 1 0
 Z-ax 0 0       1 1 0
 CHG001    120.481493700000    129.829724000000     34.353514600000 1 0
 CHG002    120.963100100000    126.547633100000     37.038280900000 1 0
 CHG003    122.059007600000    125.963617600000     38.487689000000 1 0
 CHG004    118.931318800000    124.937472600000     36.156747500000 1 0
 CHG005    118.502939900000    125.541906800000     34.234782300000 1 0
 CHG006    119.631304700000    122.150216100000     35.917798300000 1 0
 CHG007    117.884331500000    121.191598900000     35.396293800000 1 0
 CHG008    119.999472700000    121.518848300000     37.843575200000 1 0
 CHG009    116.432276500000    125.220541500000     37.552092300000 1 0
 CHG010    114.576235100000    124.055006600000     36.783623400000 1 0
 CHG011    116.332075100000    126.592840900000     39.666618600000 1 0
 CHG012    117.857776300000    127.646757600000     40.118687200000 1 0
 CHG013    114.507608000000    126.106449700000     41.649686900000 1 0
 CHG014    114.184828000000    124.094681600000     41.951895000000 1 0
 CHG015    115.506359800000    127.091703200000     44.169138900000 1 0
 CHG016    116.031101500000    129.072194300000     43.956904800000 1 0
 CHG017    113.755683100000    126.745882300000     46.434397500000 1 0
 CHG018    112.084059100000    127.915102600000     46.149107400000 1 0
 CHG019    113.188671200000    124.770212000000     46.568574500000 1 0
 CHG020    114.600907000000    127.354551600000     48.211440200000 1 0
 CHG021    117.867562200000    125.545997700000     44.761885900000 1 0
 CHG022    119.272093600000    125.583627300000     43.255675300000 1 0
 CHG023    118.867530500000    126.184556300000     46.445656600000 1 0
 CHG024    117.342613300000    123.558126600000     44.886642100000 1 0
 CHG025    111.942002000000    127.225695500000     40.988443300000 1 0
 CHG026    110.140233400000    125.811846800000     41.373777100000 1 0
 CHG027    111.828356400000    129.365706900000     39.657346400000 1 0
 STOP
 MONOPOLES
 CHG001     -0.552000000000
 CHG002     -0.355200000000
 CHG003      0.262400000000
 CHG004     -0.101500000000
 CHG005      0.137000000000
 CHG006     -0.144400000000
 CHG007      0.052500000000
 CHG008      0.052500000000
 CHG009      0.573500000000
 CHG010     -0.557800000000
 CHG011     -0.450100000000
 CHG012      0.440000000000
 CHG013     -0.051900000000
 CHG014     -0.026200000000
 CHG015      0.395200000000
 CHG016     -0.115700000000
 CHG017     -0.090100000000
 CHG018     -0.009000000000
 CHG019     -0.009000000000
 CHG020     -0.009000000000
 CHG021     -0.090100000000
 CHG022     -0.009000000000
 CHG023     -0.009000000000
 CHG024     -0.009000000000
 CHG025      0.447400000000
 CHG026     -0.404600000000
 CHG027     -0.245400000000
 STOP
 $END
 $FRG004
  fragment #           4
 COORDINATES
 X-ax       1 0 0 1 0
 Y-ax 0       1 0 1 0
 Z-ax 0 0       1 1 0
 CHG001    113.427244200000    130.347761500000     39.308141900000 1 0
 CHG002    109.581322300000    130.466534400000     38.545214700000 1 0
 CHG003    108.026966400000    130.563005300000     39.893324200000 1 0
 CHG004    109.990922500000    133.250186500000     37.913238600000 1 0
 CHG005    108.272964400000    134.208776700000     37.302915700000 1 0
 CHG006    111.138958200000    134.762569600000     40.083621300000 1 0
 CHG007    111.072457700000    136.809336000000     39.862006800000 1 0
 CHG008    109.774110900000    134.491791500000     41.602393100000 1 0
 CHG009    113.101481600000    134.304833100000     40.509945700000 1 0
 CHG010    111.805901200000    133.201086000000     35.963089500000 1 0
 CHG011    112.380220900000    134.860608300000     35.507862500000 1 0
 CHG012    108.636536800000    129.116951500000     36.187628000000 1 0
 CHG013    106.478611800000    129.459438400000     35.400274400000 1 0
 CHG014    110.155723200000    127.445336600000     35.064147000000 1 0
 CHG015    111.762045000000    126.808219800000     35.874494100000 1 0
 CHG016    109.516488800000    125.993191500000     32.832440500000 1 0
 CHG017    108.151172900000    127.081971400000     31.740049500000 1 0
 CHG018    111.764559100000    125.527471300000     31.087431600000 1 0
 CHG019    113.398931900000    124.816293800000     32.119834800000 1 0
 CHG020    111.261335500000    123.761926500000     28.863585000000 1 0
 CHG021    112.930220100000    123.699562000000     27.657883900000 1 0
 CHG022    110.892807100000    121.849044300000     29.532807600000 1 0
 CHG023    109.632882800000    124.366486900000     27.756591700000 1 0
 CHG024    112.538786000000    127.849052600000     30.033654600000 1 0
 CHG025    113.766144800000    128.595228500000     31.141760700000 1 0
 CHG026    108.118670500000    123.703418700000     33.869459500000 1 0
 CHG027    106.169023700000    123.042098500000     32.794547400000 1 0
 STOP
 MONOPOLES
 CHG001      0.255300000000
 CHG002     -0.271200000000
 CHG003      0.163800000000
 CHG004      0.237900000000
 CHG005      0.044700000000
 CHG006     -0.176500000000
 CHG007      0.060000000000
 CHG008      0.060000000000
 CHG009      0.060000000000
 CHG010     -0.601900000000
 CHG011      0.405500000000
 CHG012      0.559900000000
 CHG013     -0.552000000000
 CHG014     -0.245400000000
 CHG015      0.255300000000
 CHG016     -0.271200000000
 CHG017      0.163800000000
 CHG018      0.237900000000
 CHG019      0.044700000000
 CHG020     -0.176500000000
 CHG021      0.060000000000
 CHG022      0.060000000000
 CHG023      0.060000000000
 CHG024     -0.601900000000
 CHG025      0.405500000000
 CHG026      0.559900000000
 CHG027     -0.552000000000
 STOP
 $END
 $FRG005
  fragment #           5
 COORDINATES
 X-ax       1 0 0 1 0
 Y-ax 0       1 0 1 0
 Z-ax 0 0       1 1 0
 CHG001    108.980402400000    122.626506100000     35.981834400000 1 0
 CHG002    110.731971200000    123.183578900000     36.496188700000 1 0
 CHG003    107.901858900000    120.467580800000     37.275515800000 1 0
 CHG004    107.138400000000    119.268777600000     35.784612500000 1 0
 CHG005    109.641407100000    119.117403200000     39.137470600000 1 0
 CHG006    108.479755900000    117.799881200000     40.213342400000 1 0
 CHG007    110.358036200000    120.458551900000     40.526917800000 1 0
 CHG008    111.887125600000    117.696021400000     38.098849900000 1 0
 CHG009    111.234753300000    115.759134100000     36.418913400000 1 0
 CHG010    109.301344200000    115.339333500000     35.917915500000 1 0
 CHG011    113.120828000000    114.150541400000     35.494557900000 1 0
 CHG012    112.504895900000    112.682627200000     34.217400200000 1 0
 CHG013    115.702599600000    114.561006700000     35.901130400000 1 0
 CHG014    116.307033800000    116.624236000000     37.442877800000 1 0
 CHG015    118.204264100000    117.310417300000     37.751060100000 1 0
 CHG016    114.452758500000    118.138178000000     38.569350400000 1 0
 CHG017    115.052002400000    119.596531600000     39.865264200000 1 0
 CHG018    105.459630400000    121.297053600000     38.548264800000 1 0
 CHG019    103.593208400000    119.933575900000     38.321789000000 1 0
 CHG020    101.914465800000    123.153113000000     41.248971400000 1 0
 CHG021    102.589013900000    123.643216700000     35.423042700000 1 0
 CHG022    100.648810600000    125.619292500000     34.004330400000 1 0
 CHG023    105.403095900000    123.607461400000     39.559839300000 1 0
 CHG024    107.008012100000    124.639688800000     39.519875800000 1 0
 CHG025    104.186099600000    124.878883600000     43.872301300000 1 0
 CHG026    105.549910700000    126.417055900000     44.002094500000 1 0
 CHG027    105.093525900000    123.137956700000     44.495622400000 1 0
 STOP
 MONOPOLES
 CHG001     -0.371300000000
 CHG002      0.234100000000
 CHG003     -0.030100000000
 CHG004      0.102400000000
 CHG005     -0.098700000000
 CHG006      0.061000000000
 CHG007      0.061000000000
 CHG008      0.021300000000
 CHG009     -0.083100000000
 CHG010      0.098500000000
 CHG011     -0.157000000000
 CHG012      0.123700000000
 CHG013     -0.099800000000
 CHG014     -0.157000000000
 CHG015      0.123700000000
 CHG016     -0.083100000000
 CHG017      0.098500000000
 CHG018      0.548000000000
 CHG019     -0.506800000000
 CHG020      0.063000000000
 CHG021      0.088900000000
 CHG022      0.088900000000
 CHG023     -0.541400000000
 CHG024      0.345400000000
 CHG025      0.147000000000
 CHG026      0.040100000000
 CHG027      0.040100000000
 STOP
 $END
 $FRG006
  fragment #           6
 COORDINATES
 X-ax       1 0 0 1 0
 Y-ax 0       1 0 1 0
 Z-ax 0 0       1 1 0
 CHG001    102.217358700000    125.156527900000     45.646167700000 1 0
 CHG002    102.923877600000    125.589268100000     47.260063200000 1 0
 CHG003     98.656749500000    123.396696100000     36.644093900000 1 0
 CHG004     96.619786900000    123.671231700000     35.562745700000 1 0
 CHG005    105.887018100000    126.862979100000     45.984590600000 1 0
 CHG006    104.936627800000    128.124885800000     43.027410800000 1 0
 CHG007    107.245909200000    125.670474500000     43.102661000000 1 0
 CHG008     98.950054800000    121.525029800000     38.310007200000 1 0
 CHG009    100.737559100000    120.880082500000     38.488053900000 1 0
 CHG010     96.897341100000    119.959617500000     39.223056300000 1 0
 CHG011     95.497468300000    119.617797400000     37.751224600000 1 0
 CHG012     97.789944400000    117.291179000000     39.854307000000 1 0
 CHG013     96.080726900000    116.380400600000     40.555617500000 1 0
 CHG014     98.562360100000    115.878015100000     37.462197200000 1 0
 CHG015    100.263449800000    116.773871300000     36.722930400000 1 0
 CHG016     99.142140500000    113.927386100000     37.781050700000 1 0
 CHG017     96.901639300000    115.677720400000     36.260258200000 1 0
 CHG018     99.832187400000    117.085396700000     41.879839200000 1 0
 CHG019    100.834759900000    115.301559800000     41.644131600000 1 0
 CHG020    101.100428700000    118.705144800000     41.776164100000 1 0
 CHG021     98.949685300000    117.021275000000     43.739908400000 1 0
 CHG022     95.287306800000    121.158150300000     41.283068800000 1 0
 CHG023     95.291325600000    120.502146700000     43.510968100000 1 0
 CHG024     94.072590300000    123.298720400000     40.729118200000 1 0
 CHG025     94.123456900000    123.712654800000     38.866616000000 1 0
 CHG026     93.014375400000    125.041873000000     42.556518400000 1 0
 CHG027     94.321652000000    125.252890700000     44.134262200000 1 0
 STOP
 MONOPOLES
 CHG001     -0.640300000000
 CHG002      0.446300000000
 CHG003      0.580600000000
 CHG004     -0.509200000000
 CHG005      0.000000000000
 CHG006      0.000000000000
 CHG007      0.000000000000
 CHG008     -0.450100000000
 CHG009      0.440000000000
 CHG010     -0.051900000000
 CHG011     -0.026200000000
 CHG012      0.395200000000
 CHG013     -0.115700000000
 CHG014     -0.090100000000
 CHG015     -0.009000000000
 CHG016     -0.009000000000
 CHG017     -0.009000000000
 CHG018     -0.090100000000
 CHG019     -0.009000000000
 CHG020     -0.009000000000
 CHG021     -0.009000000000
 CHG022      0.447400000000
 CHG023     -0.404600000000
 CHG024     -0.387400000000
 CHG025      0.300600000000
 CHG026      0.037500000000
 CHG027      0.152300000000
 STOP
 $END
 $FRG007
  fragment #           7
 COORDINATES
 X-ax       1 0 0 1 0
 Y-ax 0       1 0 1 0
 Z-ax 0 0       1 1 0
 CHG001     92.840708000000    127.622437100000     41.281194500000 1 0
 CHG002     92.109084700000    128.971794700000     42.654777900000 1 0
 CHG003     91.390238900000    127.505430400000     39.823381500000 1 0
 CHG004     95.257003000000    128.811058000000     40.249435600000 1 0
 CHG005     95.673136100000    127.543005900000     38.680468500000 1 0
 CHG006     96.718456400000    128.811283300000     41.700963500000 1 0
 CHG007     94.947487100000    131.493562500000     39.259127000000 1 0
 CHG008     93.592605800000    131.997317800000     37.441325700000 1 0
 CHG009     95.924117200000    133.478442000000     40.471928600000 1 0
 CHG010     96.317470700000    133.225667800000     42.322396800000 1 0
 CHG011     95.467236700000    135.201680500000     39.790334000000 1 0
 CHG012     90.422971200000    124.268502200000     43.535694100000 1 0
 CHG013     88.921175900000    125.872634400000     44.287560400000 1 0
 CHG014     89.761660100000    121.841889600000     43.339062400000 1 0
 CHG015     90.981053200000    120.583208900000     42.582960900000 1 0
 CHG016     87.212976600000    121.146841700000     44.059431000000 1 0
 CHG017     85.971371600000    122.387924100000     42.981973300000 1 0
 CHG018     86.496257400000    118.553896600000     43.020760800000 1 0
 CHG019     87.565853100000    117.365510000000     44.319413900000 1 0
 CHG020     87.354592200000    118.147504300000     39.734840200000 1 0
 CHG021     85.375975300000    119.383414500000     38.769640500000 1 0
 CHG022     86.679971900000    121.618923500000     46.846074700000 1 0
 CHG023     88.514558300000    121.964798500000     48.542857200000 1 0
 CHG024     90.296863400000    122.433483300000     48.046256600000 1 0
 CHG025     88.134838400000    121.608029300000     51.231038600000 1 0
 CHG026     90.328942300000    120.019648200000     52.220410100000 1 0
 CHG027     91.963621500000    121.235455000000     51.916417800000 1 0
 STOP
 MONOPOLES
 CHG001     -0.032100000000
 CHG002      0.031000000000
 CHG003      0.031000000000
 CHG004     -0.020300000000
 CHG005      0.030800000000
 CHG006      0.030800000000
 CHG007      0.667800000000
 CHG008     -0.628500000000
 CHG009     -0.883400000000
 CHG010      0.408300000000
 CHG011      0.408300000000
 CHG012      0.418600000000
 CHG013     -0.565300000000
 CHG014     -0.396200000000
 CHG015      0.295200000000
 CHG016     -0.073500000000
 CHG017      0.140500000000
 CHG018     -0.221400000000
 CHG019      0.146500000000
 CHG020     -0.285200000000
 CHG021      0.189300000000
 CHG022      0.643000000000
 CHG023     -0.371300000000
 CHG024      0.234100000000
 CHG025     -0.030100000000
 CHG026     -0.098700000000
 CHG027      0.061000000000
 STOP
 $END
 $FRG008
  fragment #           8
 COORDINATES
 X-ax       1 0 0 1 0
 Y-ax 0       1 0 1 0
 Z-ax 0 0       1 1 0
 CHG001     90.642197700000    117.588232800000     50.760110100000 1 0
 CHG002     90.778785200000    113.228742800000     47.670226600000 1 0
 CHG003     92.649379200000    115.088280400000     47.464498400000 1 0
 CHG004     94.219242900000    114.927525700000     46.170283100000 1 0
 CHG005     92.656732100000    117.170207400000     49.096915800000 1 0
 CHG006     93.940733500000    118.734060800000     48.830404500000 1 0
 CHG007     87.305347500000    126.227997900000     49.875954600000 1 0
 CHG008     87.471833200000    130.549885400000     51.037520200000 1 0
 CHG009     87.994988900000    132.248388900000     52.078767500000 1 0
 CHG010     89.440601100000    130.122777000000     49.293624100000 1 0
 CHG011     88.769810600000    130.525312600000     47.656827300000 1 0
 CHG012     83.999909400000    130.030325000000     28.121092300000 1 0
 CHG013     81.823674100000    131.560856000000     31.131911800000 1 0
 CHG014     83.365306600000    131.555161100000     32.469305100000 1 0
 CHG015     82.575346700000    124.856095000000     36.090012700000 1 0
 CHG016     84.138281000000    126.740304500000     39.533162400000 1 0
 CHG017     85.713073700000    125.426143500000     39.344005300000 1 0
 CHG018     83.556031600000    126.796839000000     41.508143400000 1 0
 CHG019     85.217230000000    129.261027100000     38.743121400000 1 0
 CHG020     87.110585600000    129.376294700000     36.898897800000 1 0
 CHG021     87.789314800000    127.614534500000     36.123760800000 1 0
 CHG022     88.116149700000    131.683773900000     36.084232200000 1 0
 CHG023     89.704107300000    131.853611700000     34.813481300000 1 0
 CHG024     87.201226400000    133.889024400000     37.224004900000 1 0
 CHG025     88.066391400000    135.615173400000     36.562804200000 1 0
 CHG026     85.291470900000    133.923653300000     39.054552200000 1 0
 CHG027     84.574445300000    135.505240200000     40.126810600000 1 0
 STOP
 MONOPOLES
 CHG001      0.021300000000
 CHG002     -0.099800000000
 CHG003     -0.157000000000
 CHG004      0.123700000000
 CHG005     -0.083100000000
 CHG006      0.098500000000
 CHG007      0.345400000000
 CHG008      0.147000000000
 CHG009      0.040100000000
 CHG010     -0.640300000000
 CHG011      0.446300000000
 CHG012      0.123700000000
 CHG013     -0.083100000000
 CHG014      0.098500000000
 CHG015      0.102400000000
 CHG016     -0.098700000000
 CHG017      0.061000000000
 CHG018      0.061000000000
 CHG019      0.021300000000
 CHG020     -0.083100000000
 CHG021      0.098500000000
 CHG022     -0.157000000000
 CHG023      0.123700000000
 CHG024     -0.099800000000
 CHG025      0.114700000000
 CHG026     -0.157000000000
 CHG027      0.123700000000
 STOP
 $END
 $FRG009
  fragment #           9
 COORDINATES
 X-ax       1 0 0 1 0
 Y-ax 0       1 0 1 0
 Z-ax 0 0       1 1 0
 CHG001     84.213441000000    131.563892700000     39.572900600000 1 0
 CHG002     82.758691800000    131.507916900000     41.003234800000 1 0
 CHG003     85.111486900000    123.531057900000     26.973660300000 1 0
 CHG004     85.579748200000    125.357687600000     26.144840800000 1 0
 CHG005     86.472576700000    123.178343600000     29.456687900000 1 0
 CHG006     88.973295000000    124.033921000000     29.573861400000 1 0
 CHG007     89.964009200000    124.827593500000     27.975786700000 1 0
 CHG008     90.325283800000    123.826138300000     31.838421600000 1 0
 CHG009     92.254710100000    124.491432200000     31.839994000000 1 0
 CHG010     89.219932800000    122.853049500000     34.056719900000 1 0
 CHG011     90.444146800000    122.569530100000     36.307245600000 1 0
 CHG012     89.202532700000    122.348402200000     37.611309800000 1 0
 CHG013     86.677629100000    122.081859300000     33.879056100000 1 0
 CHG014     85.739403600000    121.528661200000     35.605029500000 1 0
 CHG015     85.366360700000    122.055367200000     31.581421300000 1 0
 CHG016     83.542740500000    121.148364500000     31.450697700000 1 0
 CHG017     88.064715400000    121.138966100000     24.031609800000 1 0
 CHG018     89.464975700000    119.448067800000     24.789254400000 1 0
 CHG019     90.884492200000    122.655106700000     20.726595200000 1 0
 CHG020     92.211016200000    121.322356300000     21.567403700000 1 0
 CHG021     92.167277200000    125.214747500000     21.000506700000 1 0
 CHG022     90.759880300000    127.048018300000     21.229163200000 1 0
 CHG023     94.650307100000    125.411185400000     21.400992400000 1 0
 CHG024     95.769616000000    123.873175300000     21.244274500000 1 0
 CHG025     95.945364900000    127.729045200000     22.070440300000 1 0
 CHG026     94.877535400000    129.470702100000     21.807452300000 1 0
 CHG027     96.597484900000    127.651533300000     24.878397100000 1 0
 STOP
 MONOPOLES
 CHG001     -0.083100000000
 CHG002      0.098500000000
 CHG003     -0.051900000000
 CHG004      0.019100000000
 CHG005      0.112600000000
 CHG006     -0.183500000000
 CHG007      0.132700000000
 CHG008     -0.181800000000
 CHG009      0.137300000000
 CHG010      0.206300000000
 CHG011     -0.421200000000
 CHG012      0.329700000000
 CHG013     -0.181800000000
 CHG014      0.137300000000
 CHG015     -0.183500000000
 CHG016      0.132700000000
 CHG017      0.622300000000
 CHG018     -0.526600000000
 CHG019     -0.051900000000
 CHG020     -0.026200000000
 CHG021      0.447400000000
 CHG022     -0.404600000000
 CHG023     -0.387400000000
 CHG024      0.300600000000
 CHG025      0.037500000000
 CHG026      0.152300000000
 CHG027     -0.032100000000
 STOP
 $END
 $FRG010
  fragment #          10
 COORDINATES
 X-ax       1 0 0 1 0
 Y-ax 0       1 0 1 0
 Z-ax 0 0       1 1 0
 CHG001     97.790962700000    125.977350300000     25.002914400000 1 0
 CHG002     94.790273700000    127.401507500000     25.834583700000 1 0
 CHG003     97.876124800000    130.040858700000     25.864310700000 1 0
 CHG004     96.840788600000    131.661156500000     25.125719700000 1 0
 CHG005     99.762605100000    130.090635000000     25.038786900000 1 0
 CHG006     98.229677100000    130.425715000000     28.692598300000 1 0
 CHG007     97.313654400000    132.170606700000     29.921489000000 1 0
 CHG008     99.832151300000    128.873774000000     29.870726000000 1 0
 CHG009    100.449984800000    127.213359500000     29.160697400000 1 0
 CHG010    100.214088000000    129.421691700000     31.658671900000 1 0
 CHG011     98.354604400000    127.751833800000     20.499637200000 1 0
 CHG012     99.526365900000    125.804448800000     20.021576600000 1 0
 CHG013     99.264175300000    129.948776200000     19.656695400000 1 0
 CHG014     98.068985400000    131.434514000000     19.740095900000 1 0
 CHG015    101.707935600000    130.496621800000     18.549563600000 1 0
 CHG016    102.925751900000    129.019228200000     19.309187100000 1 0
 CHG017    102.809267800000    133.049342200000     19.286434600000 1 0
 CHG018    101.462820700000    134.902355900000     19.670259000000 1 0
 CHG019    105.325953400000    133.069274300000     19.460561500000 1 0
 CHG020    106.357478000000    131.502375200000     19.108937600000 1 0
 CHG021    106.707543100000    135.277435300000     20.304981200000 1 0
 CHG022    105.516561300000    136.880504200000     19.800516300000 1 0
 CHG023    107.254631800000    135.122997200000     23.132117700000 1 0
 CHG024    108.294608600000    136.850308600000     23.553576200000 1 0
 CHG025    108.440414300000    133.450039600000     23.326839100000 1 0
 CHG026    105.125974200000    134.987049500000     25.072785100000 1 0
 CHG027    104.758869500000    133.040592600000     25.637882100000 1 0
 STOP
 MONOPOLES
 CHG001      0.031000000000
 CHG002      0.031000000000
 CHG003     -0.020300000000
 CHG004      0.030800000000
 CHG005      0.030800000000
 CHG006      0.667800000000
 CHG007     -0.628500000000
 CHG008     -0.883400000000
 CHG009      0.408300000000
 CHG010      0.408300000000
 CHG011      0.418600000000
 CHG012     -0.565300000000
 CHG013     -0.423400000000
 CHG014      0.306800000000
 CHG015      0.031600000000
 CHG016      0.065100000000
 CHG017      0.469700000000
 CHG018     -0.592500000000